\* US_Elections_2016 *\
Minimize
OBJ: u - v
Subject To
_C1: - 0.277050750434 Alabama + v <= 0
_C10: - 0.467268539697 Arkansas + v <= 0
_C100: - 0.136008141991 North_Carolina + v <= 0
_C101: 0.136008141991 North_Carolina - u <= 0
_C102: Alabama + Alaska + Arizona + Arkansas + California + Colorado
 + Connecticut + Delaware + District_of_Columbia + Florida + Georgia + Hawaii
 + Idaho + Illinois + Indiana + Iowa + Kansas + Kentucky + Louisiana + Maine
 + Maryland + Massachusetts + Michigan + Minnesota + Mississippi + Missouri
 + Montana + Nebraska + Nevada + New_Hampshire + New_Jersey + New_Mexico
 + New_York + North_Carolina + North_Dakota + Ohio + Oklahoma + Oregon
 + Pennsylvania + Rhode_Island + South_Carolina + South_Dakota + Tennessee
 + Texas + Utah + Vermont + Virginia + Washington + West_Virginia + Wisconsin
 + Wyoming = 538
_C103: - 1.76434367298 North_Dakota + v <= 0
_C104: 1.76434367298 North_Dakota - u <= 0
_C105: Alabama + Alaska + Arizona + Arkansas + California + Colorado
 + Connecticut + Delaware + District_of_Columbia + Florida + Georgia + Hawaii
 + Idaho + Illinois + Indiana + Iowa + Kansas + Kentucky + Louisiana + Maine
 + Maryland + Massachusetts + Michigan + Minnesota + Mississippi + Missouri
 + Montana + Nebraska + Nevada + New_Hampshire + New_Jersey + New_Mexico
 + New_York + North_Carolina + North_Dakota + Ohio + Oklahoma + Oregon
 + Pennsylvania + Rhode_Island + South_Carolina + South_Dakota + Tennessee
 + Texas + Utah + Vermont + Virginia + Washington + West_Virginia + Wisconsin
 + Wyoming = 538
_C106: - 0.114458278126 Ohio + v <= 0
_C107: 0.114458278126 Ohio - u <= 0
_C108: Alabama + Alaska + Arizona + Arkansas + California + Colorado
 + Connecticut + Delaware + District_of_Columbia + Florida + Georgia + Hawaii
 + Idaho + Illinois + Indiana + Iowa + Kansas + Kentucky + Louisiana + Maine
 + Maryland + Massachusetts + Michigan + Minnesota + Mississippi + Missouri
 + Montana + Nebraska + Nevada + New_Hampshire + New_Jersey + New_Mexico
 + New_York + North_Carolina + North_Dakota + Ohio + Oklahoma + Oregon
 + Pennsylvania + Rhode_Island + South_Carolina + South_Dakota + Tennessee
 + Texas + Utah + Vermont + Virginia + Washington + West_Virginia + Wisconsin
 + Wyoming = 538
_C109: - 0.359942826681 Oklahoma + v <= 0
_C11: 0.467268539697 Arkansas - u <= 0
_C110: 0.359942826681 Oklahoma - u <= 0
_C111: Alabama + Alaska + Arizona + Arkansas + California + Colorado
 + Connecticut + Delaware + District_of_Columbia + Florida + Georgia + Hawaii
 + Idaho + Illinois + Indiana + Iowa + Kansas + Kentucky + Louisiana + Maine
 + Maryland + Massachusetts + Michigan + Minnesota + Mississippi + Missouri
 + Montana + Nebraska + Nevada + New_Hampshire + New_Jersey + New_Mexico
 + New_York + North_Carolina + North_Dakota + Ohio + Oklahoma + Oregon
 + Pennsylvania + Rhode_Island + South_Carolina + South_Dakota + Tennessee
 + Texas + Utah + Vermont + Virginia + Washington + West_Virginia + Wisconsin
 + Wyoming = 538
_C112: - 0.33066880411 Oregon + v <= 0
_C113: 0.33066880411 Oregon - u <= 0
_C114: Alabama + Alaska + Arizona + Arkansas + California + Colorado
 + Connecticut + Delaware + District_of_Columbia + Florida + Georgia + Hawaii
 + Idaho + Illinois + Indiana + Iowa + Kansas + Kentucky + Louisiana + Maine
 + Maryland + Massachusetts + Michigan + Minnesota + Mississippi + Missouri
 + Montana + Nebraska + Nevada + New_Hampshire + New_Jersey + New_Mexico
 + New_York + North_Carolina + North_Dakota + Ohio + Oklahoma + Oregon
 + Pennsylvania + Rhode_Island + South_Carolina + South_Dakota + Tennessee
 + Texas + Utah + Vermont + Virginia + Washington + West_Virginia + Wisconsin
 + Wyoming = 538
_C115: - 0.103186821805 Pennsylvania + v <= 0
_C116: 0.103186821805 Pennsylvania - u <= 0
_C117: Alabama + Alaska + Arizona + Arkansas + California + Colorado
 + Connecticut + Delaware + District_of_Columbia + Florida + Georgia + Hawaii
 + Idaho + Illinois + Indiana + Iowa + Kansas + Kentucky + Louisiana + Maine
 + Maryland + Massachusetts + Michigan + Minnesota + Mississippi + Missouri
 + Montana + Nebraska + Nevada + New_Hampshire + New_Jersey + New_Mexico
 + New_York + North_Carolina + North_Dakota + Ohio + Oklahoma + Oregon
 + Pennsylvania + Rhode_Island + South_Carolina + South_Dakota + Tennessee
 + Texas + Utah + Vermont + Virginia + Washington + West_Virginia + Wisconsin
 + Wyoming = 538
_C118: - 1.27224520745 Rhode_Island + v <= 0
_C119: 1.27224520745 Rhode_Island - u <= 0
_C12: Alabama + Alaska + Arizona + Arkansas + California + Colorado
 + Connecticut + Delaware + District_of_Columbia + Florida + Georgia + Hawaii
 + Idaho + Illinois + Indiana + Iowa + Kansas + Kentucky + Louisiana + Maine
 + Maryland + Massachusetts + Michigan + Minnesota + Mississippi + Missouri
 + Montana + Nebraska + Nevada + New_Hampshire + New_Jersey + New_Mexico
 + New_York + North_Carolina + North_Dakota + Ohio + Oklahoma + Oregon
 + Pennsylvania + Rhode_Island + South_Carolina + South_Dakota + Tennessee
 + Texas + Utah + Vermont + Virginia + Washington + West_Virginia + Wisconsin
 + Wyoming = 538
_C120: Alabama + Alaska + Arizona + Arkansas + California + Colorado
 + Connecticut + Delaware + District_of_Columbia + Florida + Georgia + Hawaii
 + Idaho + Illinois + Indiana + Iowa + Kansas + Kentucky + Louisiana + Maine
 + Maryland + Massachusetts + Michigan + Minnesota + Mississippi + Missouri
 + Montana + Nebraska + Nevada + New_Hampshire + New_Jersey + New_Mexico
 + New_York + North_Carolina + North_Dakota + Ohio + Oklahoma + Oregon
 + Pennsylvania + Rhode_Island + South_Carolina + South_Dakota + Tennessee
 + Texas + Utah + Vermont + Virginia + Washington + West_Virginia + Wisconsin
 + Wyoming = 538
_C121: - 0.269593881082 South_Carolina + v <= 0
_C122: 0.269593881082 South_Carolina - u <= 0
_C123: Alabama + Alaska + Arizona + Arkansas + California + Colorado
 + Connecticut + Delaware + District_of_Columbia + Florida + Georgia + Hawaii
 + Idaho + Illinois + Indiana + Iowa + Kansas + Kentucky + Louisiana + Maine
 + Maryland + Massachusetts + Michigan + Minnesota + Mississippi + Missouri
 + Montana + Nebraska + Nevada + New_Hampshire + New_Jersey + New_Mexico
 + New_York + North_Carolina + North_Dakota + Ohio + Oklahoma + Oregon
 + Pennsylvania + Rhode_Island + South_Carolina + South_Dakota + Tennessee
 + Texas + Utah + Vermont + Virginia + Washington + West_Virginia + Wisconsin
 + Wyoming = 538
_C124: - 1.58435167537 South_Dakota + v <= 0
_C125: 1.58435167537 South_Dakota - u <= 0
_C126: Alabama + Alaska + Arizona + Arkansas + California + Colorado
 + Connecticut + Delaware + District_of_Columbia + Florida + Georgia + Hawaii
 + Idaho + Illinois + Indiana + Iowa + Kansas + Kentucky + Louisiana + Maine
 + Maryland + Massachusetts + Michigan + Minnesota + Mississippi + Missouri
 + Montana + Nebraska + Nevada + New_Hampshire + New_Jersey + New_Mexico
 + New_York + North_Carolina + North_Dakota + Ohio + Oklahoma + Oregon
 + Pennsylvania + Rhode_Island + South_Carolina + South_Dakota + Tennessee
 + Texas + Utah + Vermont + Virginia + Washington + West_Virginia + Wisconsin
 + Wyoming = 538
_C127: - 0.203689799989 Tennessee + v <= 0
_C128: 0.203689799989 Tennessee - u <= 0
_C129: Alabama + Alaska + Arizona + Arkansas + California + Colorado
 + Connecticut + Delaware + District_of_Columbia + Florida + Georgia + Hawaii
 + Idaho + Illinois + Indiana + Iowa + Kansas + Kentucky + Louisiana + Maine
 + Maryland + Massachusetts + Michigan + Minnesota + Mississippi + Missouri
 + Montana + Nebraska + Nevada + New_Hampshire + New_Jersey + New_Mexico
 + New_York + North_Carolina + North_Dakota + Ohio + Oklahoma + Oregon
 + Pennsylvania + Rhode_Island + South_Carolina + South_Dakota + Tennessee
 + Texas + Utah + Vermont + Virginia + Washington + West_Virginia + Wisconsin
 + Wyoming = 538
_C13: - 0.0398329501669 California + v <= 0
_C130: - 0.0573101700909 Texas + v <= 0
_C131: 0.0573101700909 Texas - u <= 0
_C132: Alabama + Alaska + Arizona + Arkansas + California + Colorado
 + Connecticut + Delaware + District_of_Columbia + Florida + Georgia + Hawaii
 + Idaho + Illinois + Indiana + Iowa + Kansas + Kentucky + Louisiana + Maine
 + Maryland + Massachusetts + Michigan + Minnesota + Mississippi + Missouri
 + Montana + Nebraska + Nevada + New_Hampshire + New_Jersey + New_Mexico
 + New_York + North_Carolina + North_Dakota + Ohio + Oklahoma + Oregon
 + Pennsylvania + Rhode_Island + South_Carolina + South_Dakota + Tennessee
 + Texas + Utah + Vermont + Virginia + Washington + West_Virginia + Wisconsin
 + Wyoming = 538
_C133: - 0.502037015189 Utah + v <= 0
_C134: 0.502037015189 Utah - u <= 0
_C135: Alabama + Alaska + Arizona + Arkansas + California + Colorado
 + Connecticut + Delaware + District_of_Columbia + Florida + Georgia + Hawaii
 + Idaho + Illinois + Indiana + Iowa + Kansas + Kentucky + Louisiana + Maine
 + Maryland + Massachusetts + Michigan + Minnesota + Mississippi + Missouri
 + Montana + Nebraska + Nevada + New_Hampshire + New_Jersey + New_Mexico
 + New_York + North_Carolina + North_Dakota + Ohio + Oklahoma + Oregon
 + Pennsylvania + Rhode_Island + South_Carolina + South_Dakota + Tennessee
 + Texas + Utah + Vermont + Virginia + Washington + West_Virginia + Wisconsin
 + Wyoming = 538
_C136: - 2.02072863433 Vermont + v <= 0
_C137: 2.02072863433 Vermont - u <= 0
_C138: Alabama + Alaska + Arizona + Arkansas + California + Colorado
 + Connecticut + Delaware + District_of_Columbia + Florida + Georgia + Hawaii
 + Idaho + Illinois + Indiana + Iowa + Kansas + Kentucky + Louisiana + Maine
 + Maryland + Massachusetts + Michigan + Minnesota + Mississippi + Missouri
 + Montana + Nebraska + Nevada + New_Hampshire + New_Jersey + New_Mexico
 + New_York + North_Carolina + North_Dakota + Ohio + Oklahoma + Oregon
 + Pennsylvania + Rhode_Island + South_Carolina + South_Dakota + Tennessee
 + Texas + Utah + Vermont + Virginia + Washington + West_Virginia + Wisconsin
 + Wyoming = 538
_C139: - 0.165915842176 Virginia + v <= 0
_C14: 0.0398329501669 California - u <= 0
_C140: 0.165915842176 Virginia - u <= 0
_C141: Alabama + Alaska + Arizona + Arkansas + California + Colorado
 + Connecticut + Delaware + District_of_Columbia + Florida + Georgia + Hawaii
 + Idaho + Illinois + Indiana + Iowa + Kansas + Kentucky + Louisiana + Maine
 + Maryland + Massachusetts + Michigan + Minnesota + Mississippi + Missouri
 + Montana + Nebraska + Nevada + New_Hampshire + New_Jersey + New_Mexico
 + New_York + North_Carolina + North_Dakota + Ohio + Oklahoma + Oregon
 + Pennsylvania + Rhode_Island + South_Carolina + South_Dakota + Tennessee
 + Texas + Utah + Vermont + Virginia + Washington + West_Virginia + Wisconsin
 + Wyoming = 538
_C142: - 0.195197364055 Washington + v <= 0
_C143: 0.195197364055 Washington - u <= 0
_C144: Alabama + Alaska + Arizona + Arkansas + California + Colorado
 + Connecticut + Delaware + District_of_Columbia + Florida + Georgia + Hawaii
 + Idaho + Illinois + Indiana + Iowa + Kansas + Kentucky + Louisiana + Maine
 + Maryland + Massachusetts + Michigan + Minnesota + Mississippi + Missouri
 + Montana + Nebraska + Nevada + New_Hampshire + New_Jersey + New_Mexico
 + New_York + North_Carolina + North_Dakota + Ohio + Oklahoma + Oregon
 + Pennsylvania + Rhode_Island + South_Carolina + South_Dakota + Tennessee
 + Texas + Utah + Vermont + Virginia + Washington + West_Virginia + Wisconsin
 + Wyoming = 538
_C145: - 0.702725379841 West_Virginia + v <= 0
_C146: 0.702725379841 West_Virginia - u <= 0
_C147: Alabama + Alaska + Arizona + Arkansas + California + Colorado
 + Connecticut + Delaware + District_of_Columbia + Florida + Georgia + Hawaii
 + Idaho + Illinois + Indiana + Iowa + Kansas + Kentucky + Louisiana + Maine
 + Maryland + Massachusetts + Michigan + Minnesota + Mississippi + Missouri
 + Montana + Nebraska + Nevada + New_Hampshire + New_Jersey + New_Mexico
 + New_York + North_Carolina + North_Dakota + Ohio + Oklahoma + Oregon
 + Pennsylvania + Rhode_Island + South_Carolina + South_Dakota + Tennessee
 + Texas + Utah + Vermont + Virginia + Washington + West_Virginia + Wisconsin
 + Wyoming = 538
_C148: - 0.233368361924 Wisconsin + v <= 0
_C149: 0.233368361924 Wisconsin - u <= 0
_C15: Alabama + Alaska + Arizona + Arkansas + California + Colorado
 + Connecticut + Delaware + District_of_Columbia + Florida + Georgia + Hawaii
 + Idaho + Illinois + Indiana + Iowa + Kansas + Kentucky + Louisiana + Maine
 + Maryland + Massachusetts + Michigan + Minnesota + Mississippi + Missouri
 + Montana + Nebraska + Nevada + New_Hampshire + New_Jersey + New_Mexico
 + New_York + North_Carolina + North_Dakota + Ohio + Oklahoma + Oregon
 + Pennsylvania + Rhode_Island + South_Carolina + South_Dakota + Tennessee
 + Texas + Utah + Vermont + Virginia + Washington + West_Virginia + Wisconsin
 + Wyoming = 538
_C150: Alabama + Alaska + Arizona + Arkansas + California + Colorado
 + Connecticut + Delaware + District_of_Columbia + Florida + Georgia + Hawaii
 + Idaho + Illinois + Indiana + Iowa + Kansas + Kentucky + Louisiana + Maine
 + Maryland + Massachusetts + Michigan + Minnesota + Mississippi + Missouri
 + Montana + Nebraska + Nevada + New_Hampshire + New_Jersey + New_Mexico
 + New_York + North_Carolina + North_Dakota + Ohio + Oklahoma + Oregon
 + Pennsylvania + Rhode_Island + South_Carolina + South_Dakota + Tennessee
 + Texas + Utah + Vermont + Virginia + Washington + West_Virginia + Wisconsin
 + Wyoming = 538
_C151: - 2.32730251674 Wyoming + v <= 0
_C152: 2.32730251674 Wyoming - u <= 0
_C153: Alabama + Alaska + Arizona + Arkansas + California + Colorado
 + Connecticut + Delaware + District_of_Columbia + Florida + Georgia + Hawaii
 + Idaho + Illinois + Indiana + Iowa + Kansas + Kentucky + Louisiana + Maine
 + Maryland + Massachusetts + Michigan + Minnesota + Mississippi + Missouri
 + Montana + Nebraska + Nevada + New_Hampshire + New_Jersey + New_Mexico
 + New_York + North_Carolina + North_Dakota + Ohio + Oklahoma + Oregon
 + Pennsylvania + Rhode_Island + South_Carolina + South_Dakota + Tennessee
 + Texas + Utah + Vermont + Virginia + Washington + West_Virginia + Wisconsin
 + Wyoming = 538
_C16: - 0.25160998942 Colorado + v <= 0
_C17: 0.25160998942 Colorado - u <= 0
_C18: Alabama + Alaska + Arizona + Arkansas + California + Colorado
 + Connecticut + Delaware + District_of_Columbia + Florida + Georgia + Hawaii
 + Idaho + Illinois + Indiana + Iowa + Kansas + Kentucky + Louisiana + Maine
 + Maryland + Massachusetts + Michigan + Minnesota + Mississippi + Missouri
 + Montana + Nebraska + Nevada + New_Hampshire + New_Jersey + New_Mexico
 + New_York + North_Carolina + North_Dakota + Ohio + Oklahoma + Oregon
 + Pennsylvania + Rhode_Island + South_Carolina + South_Dakota + Tennessee
 + Texas + Utah + Vermont + Virginia + Washington + West_Virginia + Wisconsin
 + Wyoming = 538
_C19: - 0.387182553864 Connecticut + v <= 0
_C2: 0.277050750434 Alabama - u <= 0
_C20: 0.387182553864 Connecticut - u <= 0
_C21: Alabama + Alaska + Arizona + Arkansas + California + Colorado
 + Connecticut + Delaware + District_of_Columbia + Florida + Georgia + Hawaii
 + Idaho + Illinois + Indiana + Iowa + Kansas + Kentucky + Louisiana + Maine
 + Maryland + Massachusetts + Michigan + Minnesota + Mississippi + Missouri
 + Montana + Nebraska + Nevada + New_Hampshire + New_Jersey + New_Mexico
 + New_York + North_Carolina + North_Dakota + Ohio + Oklahoma + Oregon
 + Pennsylvania + Rhode_Island + South_Carolina + South_Dakota + Tennessee
 + Texas + Utah + Vermont + Virginia + Washington + West_Virginia + Wisconsin
 + Wyoming = 538
_C22: - 1.44567165905 Delaware + v <= 0
_C23: 1.44567165905 Delaware - u <= 0
_C24: Alabama + Alaska + Arizona + Arkansas + California + Colorado
 + Connecticut + Delaware + District_of_Columbia + Florida + Georgia + Hawaii
 + Idaho + Illinois + Indiana + Iowa + Kansas + Kentucky + Louisiana + Maine
 + Maryland + Massachusetts + Michigan + Minnesota + Mississippi + Missouri
 + Montana + Nebraska + Nevada + New_Hampshire + New_Jersey + New_Mexico
 + New_York + North_Carolina + North_Dakota + Ohio + Oklahoma + Oregon
 + Pennsylvania + Rhode_Island + South_Carolina + South_Dakota + Tennessee
 + Texas + Utah + Vermont + Virginia + Washington + West_Virginia + Wisconsin
 + Wyoming = 538
_C25: - 1.94081296774 District_of_Columbia + v <= 0
_C26: 1.94081296774 District_of_Columbia - u <= 0
_C27: Alabama + Alaska + Arizona + Arkansas + California + Colorado
 + Connecticut + Delaware + District_of_Columbia + Florida + Georgia + Hawaii
 + Idaho + Illinois + Indiana + Iowa + Kansas + Kentucky + Louisiana + Maine
 + Maryland + Massachusetts + Michigan + Minnesota + Mississippi + Missouri
 + Montana + Nebraska + Nevada + New_Hampshire + New_Jersey + New_Mexico
 + New_York + North_Carolina + North_Dakota + Ohio + Oklahoma + Oregon
 + Pennsylvania + Rhode_Island + South_Carolina + South_Dakota + Tennessee
 + Texas + Utah + Vermont + Virginia + Washington + West_Virginia + Wisconsin
 + Wyoming = 538
_C28: - 0.0684881501118 Florida + v <= 0
_C29: 0.0684881501118 Florida - u <= 0
_C3: Alabama + Alaska + Arizona + Arkansas + California + Colorado
 + Connecticut + Delaware + District_of_Columbia + Florida + Georgia + Hawaii
 + Idaho + Illinois + Indiana + Iowa + Kansas + Kentucky + Louisiana + Maine
 + Maryland + Massachusetts + Michigan + Minnesota + Mississippi + Missouri
 + Montana + Nebraska + Nevada + New_Hampshire + New_Jersey + New_Mexico
 + New_York + North_Carolina + North_Dakota + Ohio + Oklahoma + Oregon
 + Pennsylvania + Rhode_Island + South_Carolina + South_Dakota + Tennessee
 + Texas + Utah + Vermont + Virginia + Washington + West_Virginia + Wisconsin
 + Wyoming = 538
_C30: Alabama + Alaska + Arizona + Arkansas + California + Colorado
 + Connecticut + Delaware + District_of_Columbia + Florida + Georgia + Hawaii
 + Idaho + Illinois + Indiana + Iowa + Kansas + Kentucky + Louisiana + Maine
 + Maryland + Massachusetts + Michigan + Minnesota + Mississippi + Missouri
 + Montana + Nebraska + Nevada + New_Hampshire + New_Jersey + New_Mexico
 + New_York + North_Carolina + North_Dakota + Ohio + Oklahoma + Oregon
 + Pennsylvania + Rhode_Island + South_Carolina + South_Dakota + Tennessee
 + Texas + Utah + Vermont + Virginia + Washington + West_Virginia + Wisconsin
 + Wyoming = 538
_C31: - 0.14367892473 Georgia + v <= 0
_C32: 0.14367892473 Georgia - u <= 0
_C33: Alabama + Alaska + Arizona + Arkansas + California + Colorado
 + Connecticut + Delaware + District_of_Columbia + Florida + Georgia + Hawaii
 + Idaho + Illinois + Indiana + Iowa + Kansas + Kentucky + Louisiana + Maine
 + Maryland + Massachusetts + Michigan + Minnesota + Mississippi + Missouri
 + Montana + Nebraska + Nevada + New_Hampshire + New_Jersey + New_Mexico
 + New_York + North_Carolina + North_Dakota + Ohio + Oklahoma + Oregon
 + Pennsylvania + Rhode_Island + South_Carolina + South_Dakota + Tennessee
 + Texas + Utah + Vermont + Virginia + Washington + West_Virginia + Wisconsin
 + Wyoming = 538
_C34: - 0.987303279821 Hawaii + v <= 0
_C35: 0.987303279821 Hawaii - u <= 0
_C36: Alabama + Alaska + Arizona + Arkansas + California + Colorado
 + Connecticut + Delaware + District_of_Columbia + Florida + Georgia + Hawaii
 + Idaho + Illinois + Indiana + Iowa + Kansas + Kentucky + Louisiana + Maine
 + Maryland + Massachusetts + Michigan + Minnesota + Mississippi + Missouri
 + Montana + Nebraska + Nevada + New_Hampshire + New_Jersey + New_Mexico
 + New_York + North_Carolina + North_Dakota + Ohio + Oklahoma + Oregon
 + Pennsylvania + Rhode_Island + South_Carolina + South_Dakota + Tennessee
 + Texas + Utah + Vermont + Virginia + Washington + West_Virginia + Wisconsin
 + Wyoming = 538
_C37: - 0.857113960158 Idaho + v <= 0
_C38: 0.857113960158 Idaho - u <= 0
_C39: Alabama + Alaska + Arizona + Arkansas + California + Colorado
 + Connecticut + Delaware + District_of_Columbia + Florida + Georgia + Hawaii
 + Idaho + Illinois + Indiana + Iowa + Kansas + Kentucky + Louisiana + Maine
 + Maryland + Massachusetts + Michigan + Minnesota + Mississippi + Missouri
 + Montana + Nebraska + Nevada + New_Hampshire + New_Jersey + New_Mexico
 + New_York + North_Carolina + North_Dakota + Ohio + Oklahoma + Oregon
 + Pennsylvania + Rhode_Island + South_Carolina + South_Dakota + Tennessee
 + Texas + Utah + Vermont + Virginia + Washington + West_Virginia + Wisconsin
 + Wyoming = 538
_C4: - 1.91322015998 Alaska + v <= 0
_C40: - 0.111291118312 Illinois + v <= 0
_C41: 0.111291118312 Illinois - u <= 0
_C42: Alabama + Alaska + Arizona + Arkansas + California + Colorado
 + Connecticut + Delaware + District_of_Columbia + Florida + Georgia + Hawaii
 + Idaho + Illinois + Indiana + Iowa + Kansas + Kentucky + Louisiana + Maine
 + Maryland + Massachusetts + Michigan + Minnesota + Mississippi + Missouri
 + Montana + Nebraska + Nevada + New_Hampshire + New_Jersey + New_Mexico
 + New_York + North_Carolina + North_Dakota + Ohio + Oklahoma + Oregon
 + Pennsylvania + Rhode_Island + South_Carolina + South_Dakota + Tennessee
 + Texas + Utah + Vermont + Virginia + Washington + West_Virginia + Wisconsin
 + Wyoming = 538
_C43: - 0.206188245332 Indiana + v <= 0
_C44: 0.206188245332 Indiana - u <= 0
_C45: Alabama + Alaska + Arizona + Arkansas + California + Colorado
 + Connecticut + Delaware + District_of_Columbia + Florida + Georgia + Hawaii
 + Idaho + Illinois + Indiana + Iowa + Kansas + Kentucky + Louisiana + Maine
 + Maryland + Massachusetts + Michigan + Minnesota + Mississippi + Missouri
 + Montana + Nebraska + Nevada + New_Hampshire + New_Jersey + New_Mexico
 + New_York + North_Carolina + North_Dakota + Ohio + Oklahoma + Oregon
 + Pennsylvania + Rhode_Island + South_Carolina + South_Dakota + Tennessee
 + Texas + Utah + Vermont + Virginia + Washington + West_Virginia + Wisconsin
 + Wyoming = 538
_C46: - 0.436960572174 Iowa + v <= 0
_C47: 0.436960572174 Iowa - u <= 0
_C48: Alabama + Alaska + Arizona + Arkansas + California + Colorado
 + Connecticut + Delaware + District_of_Columbia + Florida + Georgia + Hawaii
 + Idaho + Illinois + Indiana + Iowa + Kansas + Kentucky + Louisiana + Maine
 + Maryland + Massachusetts + Michigan + Minnesota + Mississippi + Missouri
 + Montana + Nebraska + Nevada + New_Hampshire + New_Jersey + New_Mexico
 + New_York + North_Carolina + North_Dakota + Ohio + Oklahoma + Oregon
 + Pennsylvania + Rhode_Island + South_Carolina + South_Dakota + Tennessee
 + Texas + Utah + Vermont + Virginia + Washington + West_Virginia + Wisconsin
 + Wyoming = 538
_C49: - 0.486848991614 Kansas + v <= 0
_C5: 1.91322015998 Alaska - u <= 0
_C50: 0.486848991614 Kansas - u <= 0
_C51: Alabama + Alaska + Arizona + Arkansas + California + Colorado
 + Connecticut + Delaware + District_of_Columbia + Florida + Georgia + Hawaii
 + Idaho + Illinois + Indiana + Iowa + Kansas + Kentucky + Louisiana + Maine
 + Maryland + Massachusetts + Michigan + Minnesota + Mississippi + Missouri
 + Montana + Nebraska + Nevada + New_Hampshire + New_Jersey + New_Mexico
 + New_York + North_Carolina + North_Dakota + Ohio + Oklahoma + Oregon
 + Pennsylvania + Rhode_Island + South_Carolina + South_Dakota + Tennessee
 + Texas + Utah + Vermont + Virginia + Washington + West_Virginia + Wisconsin
 + Wyoming = 538
_C52: - 0.304653274109 Kentucky + v <= 0
_C53: 0.304653274109 Kentucky - u <= 0
_C54: Alabama + Alaska + Arizona + Arkansas + California + Colorado
 + Connecticut + Delaware + District_of_Columbia + Florida + Georgia + Hawaii
 + Idaho + Illinois + Indiana + Iowa + Kansas + Kentucky + Louisiana + Maine
 + Maryland + Massachusetts + Michigan + Minnesota + Mississippi + Missouri
 + Montana + Nebraska + Nevada + New_Hampshire + New_Jersey + New_Mexico
 + New_York + North_Carolina + North_Dakota + Ohio + Oklahoma + Oregon
 + Pennsylvania + Rhode_Island + South_Carolina + South_Dakota + Tennessee
 + Texas + Utah + Vermont + Virginia + Washington + West_Virginia + Wisconsin
 + Wyoming = 538
_C55: - 0.295470292678 Louisiana + v <= 0
_C56: 0.295470292678 Louisiana - u <= 0
_C57: Alabama + Alaska + Arizona + Arkansas + California + Colorado
 + Connecticut + Delaware + District_of_Columbia + Florida + Georgia + Hawaii
 + Idaho + Illinois + Indiana + Iowa + Kansas + Kentucky + Louisiana + Maine
 + Maryland + Massachusetts + Michigan + Minnesota + Mississippi + Missouri
 + Montana + Nebraska + Nevada + New_Hampshire + New_Jersey + New_Mexico
 + New_York + North_Carolina + North_Dakota + Ohio + Oklahoma + Oregon
 + Pennsylvania + Rhode_Island + South_Carolina + South_Dakota + Tennessee
 + Texas + Utah + Vermont + Virginia + Washington + West_Virginia + Wisconsin
 + Wyoming = 538
_C58: - 0.944847369356 Maine + v <= 0
_C59: 0.944847369356 Maine - u <= 0
_C6: Alabama + Alaska + Arizona + Arkansas + California + Colorado
 + Connecticut + Delaware + District_of_Columbia + Florida + Georgia + Hawaii
 + Idaho + Illinois + Indiana + Iowa + Kansas + Kentucky + Louisiana + Maine
 + Maryland + Massachusetts + Michigan + Minnesota + Mississippi + Missouri
 + Montana + Nebraska + Nevada + New_Hampshire + New_Jersey + New_Mexico
 + New_York + North_Carolina + North_Dakota + Ohio + Oklahoma + Oregon
 + Pennsylvania + Rhode_Island + South_Carolina + South_Dakota + Tennessee
 + Texas + Utah + Vermont + Virginia + Washington + West_Virginia + Wisconsin
 + Wyoming = 538
_C60: Alabama + Alaska + Arizona + Arkansas + California + Colorado
 + Connecticut + Delaware + District_of_Columbia + Florida + Georgia + Hawaii
 + Idaho + Illinois + Indiana + Iowa + Kansas + Kentucky + Louisiana + Maine
 + Maryland + Massachusetts + Michigan + Minnesota + Mississippi + Missouri
 + Montana + Nebraska + Nevada + New_Hampshire + New_Jersey + New_Mexico
 + New_York + North_Carolina + North_Dakota + Ohio + Oklahoma + Oregon
 + Pennsylvania + Rhode_Island + South_Carolina + South_Dakota + Tennessee
 + Texas + Utah + Vermont + Virginia + Washington + West_Virginia + Wisconsin
 + Wyoming = 538
_C61: - 0.238685359231 Maryland + v <= 0
_C62: 0.238685359231 Maryland - u <= 0
_C63: Alabama + Alaska + Arizona + Arkansas + California + Colorado
 + Connecticut + Delaware + District_of_Columbia + Florida + Georgia + Hawaii
 + Idaho + Illinois + Indiana + Iowa + Kansas + Kentucky + Louisiana + Maine
 + Maryland + Massachusetts + Michigan + Minnesota + Mississippi + Missouri
 + Montana + Nebraska + Nevada + New_Hampshire + New_Jersey + New_Mexico
 + New_York + North_Carolina + North_Dakota + Ohio + Oklahoma + Oregon
 + Pennsylvania + Rhode_Island + South_Carolina + South_Dakota + Tennessee
 + Texas + Utah + Vermont + Virginia + Washington + West_Virginia + Wisconsin
 + Wyoming = 538
_C64: - 0.202100715679 Massachusetts + v <= 0
_C65: 0.202100715679 Massachusetts - u <= 0
_C66: Alabama + Alaska + Arizona + Arkansas + California + Colorado
 + Connecticut + Delaware + District_of_Columbia + Florida + Georgia + Hawaii
 + Idaho + Illinois + Indiana + Iowa + Kansas + Kentucky + Louisiana + Maine
 + Maryland + Massachusetts + Michigan + Minnesota + Mississippi + Missouri
 + Montana + Nebraska + Nevada + New_Hampshire + New_Jersey + New_Mexico
 + New_York + North_Carolina + North_Dakota + Ohio + Oklahoma + Oregon
 + Pennsylvania + Rhode_Island + South_Carolina + South_Dakota + Tennessee
 + Texas + Utah + Vermont + Virginia + Washington + West_Virginia + Wisconsin
 + Wyoming = 538
_C67: - 0.134759483968 Michigan + v <= 0
_C68: 0.134759483968 Michigan - u <= 0
_C69: Alabama + Alaska + Arizona + Arkansas + California + Colorado
 + Connecticut + Delaware + District_of_Columbia + Florida + Georgia + Hawaii
 + Idaho + Illinois + Indiana + Iowa + Kansas + Kentucky + Louisiana + Maine
 + Maryland + Massachusetts + Michigan + Minnesota + Mississippi + Missouri
 + Montana + Nebraska + Nevada + New_Hampshire + New_Jersey + New_Mexico
 + New_York + North_Carolina + North_Dakota + Ohio + Oklahoma + Oregon
 + Pennsylvania + Rhode_Island + South_Carolina + South_Dakota + Tennessee
 + Texas + Utah + Vermont + Virginia + Washington + West_Virginia + Wisconsin
 + Wyoming = 538
_C7: - 0.210956667391 Arizona + v <= 0
_C70: - 0.251686044814 Minnesota + v <= 0
_C71: 0.251686044814 Minnesota - u <= 0
_C72: Alabama + Alaska + Arizona + Arkansas + California + Colorado
 + Connecticut + Delaware + District_of_Columbia + Florida + Georgia + Hawaii
 + Idaho + Illinois + Indiana + Iowa + Kansas + Kentucky + Louisiana + Maine
 + Maryland + Massachusetts + Michigan + Minnesota + Mississippi + Missouri
 + Montana + Nebraska + Nevada + New_Hampshire + New_Jersey + New_Mexico
 + New_York + North_Carolina + North_Dakota + Ohio + Oklahoma + Oregon
 + Pennsylvania + Rhode_Island + South_Carolina + South_Dakota + Tennessee
 + Texas + Utah + Vermont + Virginia + Washington + West_Virginia + Wisconsin
 + Wyoming = 538
_C73: - 0.456362399207 Mississippi + v <= 0
_C74: 0.456362399207 Mississippi - u <= 0
_C75: Alabama + Alaska + Arizona + Arkansas + California + Colorado
 + Connecticut + Delaware + District_of_Columbia + Florida + Georgia + Hawaii
 + Idaho + Illinois + Indiana + Iowa + Kansas + Kentucky + Louisiana + Maine
 + Maryland + Massachusetts + Michigan + Minnesota + Mississippi + Missouri
 + Montana + Nebraska + Nevada + New_Hampshire + New_Jersey + New_Mexico
 + New_York + North_Carolina + North_Dakota + Ohio + Oklahoma + Oregon
 + Pennsylvania + Rhode_Island + South_Carolina + South_Dakota + Tennessee
 + Texas + Utah + Vermont + Virginia + Washington + West_Virginia + Wisconsin
 + Wyoming = 538
_C76: - 0.221340549035 Missouri + v <= 0
_C77: 0.221340549035 Missouri - u <= 0
_C78: Alabama + Alaska + Arizona + Arkansas + California + Colorado
 + Connecticut + Delaware + District_of_Columbia + Florida + Georgia + Hawaii
 + Idaho + Illinois + Indiana + Iowa + Kansas + Kentucky + Louisiana + Maine
 + Maryland + Massachusetts + Michigan + Minnesota + Mississippi + Missouri
 + Montana + Nebraska + Nevada + New_Hampshire + New_Jersey + New_Mexico
 + New_York + North_Carolina + North_Dakota + Ohio + Oklahoma + Oregon
 + Pennsylvania + Rhode_Island + South_Carolina + South_Dakota + Tennessee
 + Texas + Utah + Vermont + Virginia + Washington + West_Virginia + Wisconsin
 + Wyoming = 538
_C79: - 1.24339446689 Montana + v <= 0
_C8: 0.210956667391 Arizona - u <= 0
_C80: 1.24339446689 Montana - u <= 0
_C81: Alabama + Alaska + Arizona + Arkansas + California + Colorado
 + Connecticut + Delaware + District_of_Columbia + Florida + Georgia + Hawaii
 + Idaho + Illinois + Indiana + Iowa + Kansas + Kentucky + Louisiana + Maine
 + Maryland + Massachusetts + Michigan + Minnesota + Mississippi + Missouri
 + Montana + Nebraska + Nevada + New_Hampshire + New_Jersey + New_Mexico
 + New_York + North_Carolina + North_Dakota + Ohio + Oklahoma + Oregon
 + Pennsylvania + Rhode_Island + South_Carolina + South_Dakota + Tennessee
 + Texas + Utah + Vermont + Virginia + Washington + West_Virginia + Wisconsin
 + Wyoming = 538
_C82: - 0.744146727875 Nebraska + v <= 0
_C83: 0.744146727875 Nebraska - u <= 0
_C84: Alabama + Alaska + Arizona + Arkansas + California + Colorado
 + Connecticut + Delaware + District_of_Columbia + Florida + Georgia + Hawaii
 + Idaho + Illinois + Indiana + Iowa + Kansas + Kentucky + Louisiana + Maine
 + Maryland + Massachusetts + Michigan + Minnesota + Mississippi + Missouri
 + Montana + Nebraska + Nevada + New_Hampshire + New_Jersey + New_Mexico
 + New_York + North_Carolina + North_Dakota + Ohio + Oklahoma + Oregon
 + Pennsylvania + Rhode_Island + South_Carolina + South_Dakota + Tennessee
 + Texas + Utah + Vermont + Virginia + Washington + West_Virginia + Wisconsin
 + Wyoming = 538
_C85: - 0.509791306733 Nevada + v <= 0
_C86: 0.509791306733 Nevada - u <= 0
_C87: Alabama + Alaska + Arizona + Arkansas + California + Colorado
 + Connecticut + Delaware + District_of_Columbia + Florida + Georgia + Hawaii
 + Idaho + Illinois + Indiana + Iowa + Kansas + Kentucky + Louisiana + Maine
 + Maryland + Massachusetts + Michigan + Minnesota + Mississippi + Missouri
 + Montana + Nebraska + Nevada + New_Hampshire + New_Jersey + New_Mexico
 + New_York + North_Carolina + North_Dakota + Ohio + Oklahoma + Oregon
 + Pennsylvania + Rhode_Island + South_Carolina + South_Dakota + Tennessee
 + Texas + Utah + Vermont + Virginia + Washington + West_Virginia + Wisconsin
 + Wyoming = 538
_C88: - 0.958961253171 New_Hampshire + v <= 0
_C89: 0.958961253171 New_Hampshire - u <= 0
_C9: Alabama + Alaska + Arizona + Arkansas + California + Colorado
 + Connecticut + Delaware + District_of_Columbia + Florida + Georgia + Hawaii
 + Idaho + Illinois + Indiana + Iowa + Kansas + Kentucky + Louisiana + Maine
 + Maryland + Massachusetts + Michigan + Minnesota + Mississippi + Missouri
 + Montana + Nebraska + Nevada + New_Hampshire + New_Jersey + New_Mexico
 + New_York + North_Carolina + North_Dakota + Ohio + Oklahoma + Oregon
 + Pennsylvania + Rhode_Island + South_Carolina + South_Dakota + Tennessee
 + Texas + Utah + Vermont + Virginia + Washington + West_Virginia + Wisconsin
 + Wyoming = 538
_C90: Alabama + Alaska + Arizona + Arkansas + California + Colorado
 + Connecticut + Delaware + District_of_Columbia + Florida + Georgia + Hawaii
 + Idaho + Illinois + Indiana + Iowa + Kansas + Kentucky + Louisiana + Maine
 + Maryland + Massachusetts + Michigan + Minnesota + Mississippi + Missouri
 + Montana + Nebraska + Nevada + New_Hampshire + New_Jersey + New_Mexico
 + New_York + North_Carolina + North_Dakota + Ohio + Oklahoma + Oregon
 + Pennsylvania + Rhode_Island + South_Carolina + South_Dakota + Tennessee
 + Texas + Utah + Vermont + Virginia + Washington + West_Virginia + Wisconsin
 + Wyoming = 538
_C91: - 0.166288194735 New_Jersey + v <= 0
_C92: 0.166288194735 New_Jersey - u <= 0
_C93: Alabama + Alaska + Arizona + Arkansas + California + Colorado
 + Connecticut + Delaware + District_of_Columbia + Florida + Georgia + Hawaii
 + Idaho + Illinois + Indiana + Iowa + Kansas + Kentucky + Louisiana + Maine
 + Maryland + Massachusetts + Michigan + Minnesota + Mississippi + Missouri
 + Montana + Nebraska + Nevada + New_Hampshire + New_Jersey + New_Mexico
 + New_York + North_Carolina + North_Dakota + Ohio + Oklahoma + Oregon
 + Pennsylvania + Rhode_Island + South_Carolina + South_Dakota + Tennessee
 + Texas + Utah + Vermont + Virginia + Washington + West_Virginia + Wisconsin
 + Wyoming = 538
_C94: - 0.682819909663 New_Mexico + v <= 0
_C95: 0.682819909663 New_Mexico - u <= 0
_C96: Alabama + Alaska + Arizona + Arkansas + California + Colorado
 + Connecticut + Delaware + District_of_Columbia + Florida + Georgia + Hawaii
 + Idaho + Illinois + Indiana + Iowa + Kansas + Kentucky + Louisiana + Maine
 + Maryland + Massachusetts + Michigan + Minnesota + Mississippi + Missouri
 + Montana + Nebraska + Nevada + New_Hampshire + New_Jersey + New_Mexico
 + New_York + North_Carolina + North_Dakota + Ohio + Oklahoma + Oregon
 + Pennsylvania + Rhode_Island + South_Carolina + South_Dakota + Tennessee
 + Texas + Utah + Vermont + Virginia + Washington + West_Virginia + Wisconsin
 + Wyoming = 538
_C97: - 0.0735043068011 New_York + v <= 0
_C98: 0.0735043068011 New_York - u <= 0
_C99: Alabama + Alaska + Arizona + Arkansas + California + Colorado
 + Connecticut + Delaware + District_of_Columbia + Florida + Georgia + Hawaii
 + Idaho + Illinois + Indiana + Iowa + Kansas + Kentucky + Louisiana + Maine
 + Maryland + Massachusetts + Michigan + Minnesota + Mississippi + Missouri
 + Montana + Nebraska + Nevada + New_Hampshire + New_Jersey + New_Mexico
 + New_York + North_Carolina + North_Dakota + Ohio + Oklahoma + Oregon
 + Pennsylvania + Rhode_Island + South_Carolina + South_Dakota + Tennessee
 + Texas + Utah + Vermont + Virginia + Washington + West_Virginia + Wisconsin
 + Wyoming = 538
Bounds
0 <= Alabama
0 <= Alaska
0 <= Arizona
0 <= Arkansas
0 <= California
0 <= Colorado
0 <= Connecticut
0 <= Delaware
0 <= District_of_Columbia
0 <= Florida
0 <= Georgia
0 <= Hawaii
0 <= Idaho
0 <= Illinois
0 <= Indiana
0 <= Iowa
0 <= Kansas
0 <= Kentucky
0 <= Louisiana
0 <= Maine
0 <= Maryland
0 <= Massachusetts
0 <= Michigan
0 <= Minnesota
0 <= Mississippi
0 <= Missouri
0 <= Montana
0 <= Nebraska
0 <= Nevada
0 <= New_Hampshire
0 <= New_Jersey
0 <= New_Mexico
0 <= New_York
0 <= North_Carolina
0 <= North_Dakota
0 <= Ohio
0 <= Oklahoma
0 <= Oregon
0 <= Pennsylvania
0 <= Rhode_Island
0 <= South_Carolina
0 <= South_Dakota
0 <= Tennessee
0 <= Texas
0 <= Utah
0 <= Vermont
0 <= Virginia
0 <= Washington
0 <= West_Virginia
0 <= Wisconsin
0 <= Wyoming
Generals
Alabama
Alaska
Arizona
Arkansas
California
Colorado
Connecticut
Delaware
District_of_Columbia
Florida
Georgia
Hawaii
Idaho
Illinois
Indiana
Iowa
Kansas
Kentucky
Louisiana
Maine
Maryland
Massachusetts
Michigan
Minnesota
Mississippi
Missouri
Montana
Nebraska
Nevada
New_Hampshire
New_Jersey
New_Mexico
New_York
North_Carolina
North_Dakota
Ohio
Oklahoma
Oregon
Pennsylvania
Rhode_Island
South_Carolina
South_Dakota
Tennessee
Texas
Utah
Vermont
Virginia
Washington
West_Virginia
Wisconsin
Wyoming
End
